6828
11,148,130,17,66,60,140,117,57,41,129,27,31,123,74,13,106,91,119,68,128,71,45,4,104,150,115,44,64,112,136,145,144,147,49,72,80,14,122,77,133,15,16,59,121,79,78,21,125,22,149,62,3,88,94,10,113,63,48,73,76,34,87,1,98,103,82,95,107,5,100,143,97,124,7,84,30,8,89,96,35,93,126,33,52,111,105,54,92,90,46,138,134,131,32,23,38,67,43,109,51,20,25,110,81,29,86,108,70,135,58,141,83,56,146,26,75,18,142,85,132,65,55,50,137,102,114,99,19,2,37,6,28,9,42,120,47,139,40,53,118,24,12,116,101,39,127,69,61,36,11
